20
5
869134
0
0
117 11 1 4 22
1
0
103 11 2 4 21
2
0
155 10 1 7 41
3
0
126 9 1 2 27
4
0
93 10 1 6 33
5
0
109 16 2 4 27
6
0
123 7 1 5 32
7
0
134 6 2 8 14
8
0
71 12 1 5 17
9
0
161 8 1 4 36
10
0
118 9 1 7 23
11
0
104 8 1 8 38
12
0
94 10 1 3 33
13
0
141 11 1 5 29
14
0
129 9 1 7 20
15
0
99 10 1 7 28
16
0
111 9 2 3 23
17
0
97 8 1 6 23
18
0
108 14 1 5 30
19
0
92 10 2 5 27
